22806 17196 1 2 3 4 5 6 7 8 9 10 11 12 13 14 15 19 21 23 24 25 27 28 30 31 32 35 37 38 39 40 41 42 44 45 46 49 50 53 54 55 56 58 59 60 62 63 66 67 68 69 70 72 73 74 75 76 77 78 80 81 82 84 85 86 87 88 89 90 92 93 95 96 97 98 100 